n=8;
hearts=58;
clubs=36;
spades=41;
diamonds=2;
blocked=13;
m=array2d(1..n, 1..n,[
	5,5,_,_,_,1,2,5,
	_,_,2,_,_,_,_,_,
	5,_,_,_,_,5,_,_,
	_,_,3,_,_,5,_,_,
	_,_,_,1,_,1,_,5,
	3,5,_,_,_,_,_,5,
	_,5,_,_,_,5,_,_,
	2,_,_,_,_,5,_,5
]);
